0 68 54 92 96 69 82 92 66 87 85 93 59 65 84 57 94 87 80 67 62 93 55 78 85 93 79 88 65 61 99 81 68 92 70 81 65 67 97 67 91 97 85 85 88 62 83 91 66 95 89 75 62 57 78 65 70 95 54 67 74 99 92 61 99 85 57 59 80 51 86 92 65 88 83 92 96 83 87 74 96 69 97 56 99 63 90 80 60 88 59 76 86 68 61 93 76 58 56 68 90 65 73 58 87 64 75 65 95 78 79 64 90 85 65 95 